p cnf 91 377
-4 52 -63 78 82 84 0
7 9 -47 -48 55 64 0
-8 -42 46 60 83 -87 0
-4 52 -63 -78 82 -84 0
-3 50 -66 67 -89 0
4 -50 51 67 68 0
7 9 -47 -48 55 0
7 9 -47 64 -87 0
9 40 -43 45 46 0
10 11 12 26 -28 0
10 11 12 26 34 0
10 20 21 -72 -77 0
10 22 69 -72 -77 0
12 13 -31 58 78 0
12 -31 57 58 79 0
-16 -19 -51 67 91 0
-16 -23 -51 67 91 0
17 21 22 -72 -77 0
-31 57 58 -78 79 0
-42 45 46 -60 83 0
49 -50 -51 67 68 0
1 2 3 59 0
1 2 24 59 0
1 2 24 -74 0
1 7 42 45 0
1 39 60 69 0
1 -39 -40 -43 0
1 69 70 88 0
-1 -8 -70 -83 0
2 3 56 -62 0
-2 -5 -6 74 0
3 4 -68 89 0
3 19 23 56 0
-3 4 67 -68 0
-3 -19 67 -89 0
-5 52 62 84 0
-5 52 78 -84 0
-6 -35 37 62 0
9 46 64 -87 0
10 -19 -27 -28 0
11 -19 58 -76 0
-11 -15 76 80 0
-14 -15 -31 57 0
-16 -23 67 -89 0
-17 22 -44 -77 0
19 23 39 42 0
19 23 -65 74 0
19 -51 81 85 0
-19 30 36 -63 0
20 -38 41 53 0
-20 -21 70 -72 0
-20 -22 70 -71 0
-23 25 -76 80 0
-23 -25 -27 -28 0
25 27 32 33 0
25 -32 56 59 0
-30 -31 -37 57 0
38 54 70 72 0
41 -54 70 -72 0
-46 -47 55 64 0
-49 -50 -51 -91 0
57 58 -76 -80 0
68 -85 -86 90 0
1 7 45 60 0
2 24 -32 -62 0
2 -32 56 59 0
-5 -65 74 82 0
7 -48 55 64 0
-8 42 46 83 0
-8 48 -55 -87 0
10 12 -27 34 0
12 13 -27 -31 0
12 -31 -73 -80 0
12 57 78 -79 0
-14 -31 -73 78 0
-16 -49 67 -68 0
19 23 -75 -80 0
19 23 -76 -80 0
22 41 53 71 0
23 -50 68 -91 0
1 8 -42 0
-1 8 -88 0
-1 -8 -83 0
2 65 -74 0
-2 -5 -6 0
3 4 23 0
3 4 -51 0
3 50 89 0
-3 -23 -51 0
-3 -23 -53 0
-3 -66 86 0
4 23 85 0
4 -67 89 0
4 -78 84 0
6 -33 -36 0
7 40 -87 0
-7 43 87 0
-7 -45 -55 0
-7 -46 -55 0
8 -45 55 0
8 48 55 0
-8 -18 -47 0
-8 -60 69 0
-8 -83 87 0
-9 -40 43 0
-9 -46 -48 0
10 -12 -57 0
10 -21 -60 0
10 22 -69 0
10 -34 -57 0
10 60 83 0
-10 20 -70 0
11 -19 -28 0
11 -31 -73 0
-11 -15 80 0
12 -73 79 0
-12 -29 73 0
-12 -78 -79 0
13 -86 90 0
-13 -49 90 0
-13 -85 90 0
-15 29 58 0
-16 66 -89 0
17 19 38 0
17 -43 44 0
-17 -18 -40 0
-17 44 -69 0
18 21 39 0
18 41 48 0
-18 -19 -38 0
-18 -41 -55 0
19 26 34 0
19 38 39 0
19 -75 -80 0
19 81 85 0
-19 20 -69 0
-19 -27 -32 0
-19 -34 -59 0
-19 -41 -48 0
-19 51 -81 0
-19 -51 85 0
-19 -53 54 0
-19 58 80 0
-19 65 -84 0
-19 90 -91 0
20 53 -70 0
20 -72 88 0
-20 -22 -71 0
21 70 -88 0
-22 -41 70 0
23 -26 30 0
23 -30 -33 0
23 32 56 0
23 -33 69 0
-23 -24 -25 0
-23 -41 79 0
-23 -56 -79 0
-23 79 -84 0
-23 -86 -89 0
24 35 59 0
24 35 -59 0
24 -35 -59 0
25 74 75 0
-25 -35 -59 0
-25 -36 74 0
26 28 -31 0
-26 -28 31 0
27 28 57 0
27 34 -57 0
-27 -33 -56 0
29 30 58 0
-32 -33 -34 0
33 36 37 0
-35 36 -61 0
-35 59 82 0
-36 -37 63 0
-38 -54 71 0
40 -55 87 0
43 44 77 0
-46 47 -48 0
-46 47 -64 0
47 -54 -81 0
-49 -51 -91 0
50 66 89 0
-50 66 -89 0
53 -70 71 0
66 67 -90 0
66 86 90 0
-66 -67 -89 0
-66 -86 -90 0
70 77 -88 0
37 62 -63 82 0
1 3 0
1 8 0
1 10 0
1 39 0
1 40 0
1 -42 0
-1 -2 0
-1 8 0
-1 -24 0
-1 28 0
-1 -59 0
-1 78 0
2 5 0
2 6 0
2 33 0
2 -43 0
2 -59 0
2 65 0
2 74 0
-2 35 0
-2 -74 0
3 -16 0
3 -33 0
3 50 0
3 59 0
3 61 0
3 -62 0
3 -91 0
-3 -4 0
-3 13 0
-3 -28 0
-3 -51 0
-3 56 0
-3 -56 0
4 8 0
4 16 0
4 33 0
4 -50 0
4 -51 0
4 -52 0
4 61 0
4 63 0
4 82 0
-4 -61 0
-4 84 0
5 10 0
5 -52 0
5 -62 0
5 63 0
5 -78 0
5 -82 0
5 -84 0
-5 35 0
-5 -65 0
6 25 0
6 35 0
6 -37 0
6 -62 0
6 -82 0
-6 -24 0
-6 61 0
-6 -63 0
-6 -65 0
-7 -42 0
8 9 0
8 42 0
8 -48 0
8 55 0
8 -70 0
-8 -9 0
-8 24 0
-8 41 0
-8 47 0
-8 69 0
-8 88 0
9 17 0
9 45 0
-9 -45 0
10 49 0
10 -58 0
10 -60 0
10 -77 0
-10 -11 0
-10 -12 0
-10 15 0
-10 28 0
-10 56 0
-10 59 0
-10 -59 0
-10 -83 0
-10 -88 0
-10 90 0
11 15 0
11 -31 0
11 -33 0
11 34 0
11 57 0
-11 -14 0
-11 76 0
12 -28 0
12 -34 0
12 -80 0
-12 -13 0
-12 31 0
-12 -57 0
-12 -58 0
-12 73 0
13 49 0
13 51 0
13 -78 0
13 79 0
13 -79 0
13 91 0
-13 34 0
-13 -47 0
-13 86 0
14 -19 0
14 31 0
14 -57 0
14 -58 0
14 73 0
14 -78 0
-14 -78 0
-14 -80 0
15 36 0
15 -57 0
15 -58 0
15 82 0
-15 25 0
16 49 0
16 50 0
16 51 0
-16 -49 0
-16 68 0
-16 -68 0
-16 -81 0
17 18 0
17 19 0
17 22 0
17 23 0
17 38 0
17 -71 0
17 -77 0
-17 -23 0
-17 -72 0
18 21 0
18 47 0
18 54 0
18 64 0
18 69 0
18 81 0
-18 -43 0
-18 -60 0
-18 -64 0
-18 81 0
19 26 0
19 -30 0
19 32 0
19 -36 0
19 41 0
19 42 0
19 47 0
19 51 0
19 54 0
19 64 0
19 68 0
19 -74 0
19 -76 0
19 90 0
-19 20 0
-19 21 0
-19 25 0
-19 -26 0
-19 -40 0
-19 -44 0
-19 52 0
-19 -60 0
-19 -79 0
-19 85 0
-19 -86 0
-19 -87 0
-19 89 0
20 48 0
-20 69 0
-20 71 0
